jobs  (incl. supersource/sink ):	102
RESOURCES
- renewable                 : 2 R
- nonrenewable              : 2 N
- doubly constrained        : 0 D
************************************************************************
PRECEDENCE RELATIONS:
jobnr.    #modes  #successors   successors
1	1	11		2 3 4 5 6 7 9 10 11 12 17 
2	6	6		27 20 16 15 13 8 
3	6	7		29 26 23 21 18 15 13 
4	6	8		29 28 26 25 24 23 19 14 
5	6	8		36 35 31 28 26 25 23 21 
6	6	5		45 28 26 25 15 
7	6	4		29 28 23 15 
8	6	4		29 26 22 19 
9	6	4		35 29 22 18 
10	6	7		38 36 35 31 29 24 23 
11	6	9		45 38 36 35 34 32 31 30 23 
12	6	8		45 38 35 34 32 31 28 23 
13	6	6		38 36 35 31 28 24 
14	6	5		45 34 32 30 22 
15	6	4		33 31 24 19 
16	6	6		36 35 34 31 25 23 
17	6	2		25 19 
18	6	5		48 38 33 32 28 
19	6	5		38 37 35 32 30 
20	6	3		41 34 25 
21	6	9		48 45 44 42 41 39 37 34 33 
22	6	6		39 38 37 36 33 31 
23	6	8		48 44 42 41 40 39 37 33 
24	6	7		48 43 42 41 39 34 32 
25	6	6		48 42 39 37 33 32 
26	6	5		42 39 38 33 32 
27	6	4		48 43 34 30 
28	6	3		44 37 30 
29	6	5		48 45 44 34 33 
30	6	4		42 41 40 39 
31	6	8		53 51 50 48 47 44 43 41 
32	6	5		56 51 47 44 40 
33	6	7		55 53 51 50 49 47 43 
34	6	5		59 56 55 52 40 
35	6	8		56 54 53 51 50 48 47 46 
36	6	4		59 56 55 40 
37	6	4		53 52 49 43 
38	6	4		56 47 46 44 
39	6	6		56 55 54 53 51 49 
40	6	5		58 54 53 50 46 
41	6	6		62 59 57 56 52 49 
42	6	4		61 53 52 47 
43	6	7		62 61 59 58 57 56 54 
44	6	4		59 55 54 49 
45	6	3		59 58 46 
46	6	4		65 62 57 49 
47	6	7		72 68 65 63 62 60 59 
48	6	2		62 49 
49	6	8		73 72 71 68 66 64 63 61 
50	6	6		71 68 67 66 65 57 
51	6	3		65 60 57 
52	6	2		65 54 
53	6	5		71 67 65 64 57 
54	6	6		83 78 73 68 66 60 
55	6	6		72 71 68 67 65 62 
56	6	3		68 65 60 
57	6	6		84 81 73 72 69 63 
58	6	6		76 71 70 69 65 64 
59	6	8		83 80 78 76 73 71 69 66 
60	6	6		76 71 70 69 67 64 
61	6	6		84 81 78 70 69 67 
62	6	7		84 83 81 80 74 73 70 
63	6	3		76 74 70 
64	6	8		98 89 88 87 84 81 79 74 
65	6	8		99 98 90 89 88 83 80 74 
66	6	6		89 88 84 81 79 75 
67	6	6		101 96 89 80 79 77 
68	6	3		79 77 74 
69	6	5		98 89 88 79 74 
70	6	4		89 79 77 75 
71	6	7		100 89 88 87 85 82 79 
72	6	5		100 88 85 83 78 
73	6	9		99 98 97 96 90 89 87 86 85 
74	6	6		101 100 97 91 85 82 
75	6	5		100 98 87 85 82 
76	6	8		99 98 96 94 93 91 88 86 
77	6	7		100 98 97 88 87 86 85 
78	6	7		101 99 98 97 94 93 89 
79	6	6		99 97 95 94 92 90 
80	6	3		93 91 85 
81	6	4		101 94 93 92 
82	6	3		96 93 86 
83	6	3		95 93 87 
84	6	2		96 93 
85	6	1		94 
86	6	1		95 
87	6	1		92 
88	6	1		92 
89	6	1		92 
90	6	1		93 
91	6	1		92 
92	6	1		102 
93	6	1		102 
94	6	1		102 
95	6	1		102 
96	6	1		102 
97	6	1		102 
98	6	1		102 
99	6	1		102 
100	6	1		102 
101	6	1		102 
102	1	0		
************************************************************************
REQUESTS/DURATIONS
jobnr.	mode	dur	R1	R2	N1	N2	
------------------------------------------------------------------------
1	1	0	0	0	0	0	
2	1	3	2	4	16	18	
	2	4	2	3	15	16	
	3	6	2	3	14	14	
	4	9	2	2	14	12	
	5	10	2	2	14	10	
	6	13	2	1	13	9	
3	1	2	4	4	15	17	
	2	4	4	4	13	15	
	3	5	4	3	11	12	
	4	8	4	2	8	10	
	5	16	4	2	8	6	
	6	17	4	1	6	4	
4	1	2	3	4	12	17	
	2	3	3	4	9	16	
	3	6	3	3	9	14	
	4	7	3	3	8	11	
	5	16	3	3	5	6	
	6	19	3	2	4	4	
5	1	3	5	4	16	12	
	2	8	4	3	12	11	
	3	11	4	3	10	10	
	4	13	3	3	10	7	
	5	14	3	3	7	6	
	6	20	2	3	6	6	
6	1	10	5	3	17	13	
	2	11	4	3	17	11	
	3	12	3	3	16	11	
	4	13	2	3	15	10	
	5	14	2	3	14	8	
	6	16	1	3	13	7	
7	1	6	5	2	11	8	
	2	11	4	1	10	7	
	3	12	4	1	10	6	
	4	12	3	1	9	7	
	5	17	2	1	9	7	
	6	19	2	1	9	6	
8	1	1	4	4	6	18	
	2	4	4	4	5	16	
	3	9	4	4	3	16	
	4	10	4	4	2	15	
	5	11	3	4	1	14	
	6	19	3	4	1	13	
9	1	2	4	4	17	16	
	2	7	4	3	17	16	
	3	10	4	3	17	15	
	4	14	3	3	16	14	
	5	17	3	2	15	13	
	6	19	3	2	15	12	
10	1	4	1	2	5	9	
	2	5	1	1	5	8	
	3	9	1	1	4	7	
	4	10	1	1	4	5	
	5	18	1	1	4	4	
	6	19	1	1	3	4	
11	1	3	3	5	12	20	
	2	4	3	4	10	19	
	3	7	3	4	9	18	
	4	11	3	4	7	17	
	5	12	3	4	3	17	
	6	16	3	4	1	16	
12	1	1	5	5	14	14	
	2	2	4	4	14	14	
	3	8	4	4	13	14	
	4	11	3	4	13	14	
	5	15	2	3	13	14	
	6	19	2	3	12	14	
13	1	4	3	2	17	12	
	2	5	3	2	14	11	
	3	7	3	2	12	10	
	4	8	3	2	10	8	
	5	13	3	1	8	6	
	6	14	3	1	5	5	
14	1	3	3	3	18	4	
	2	4	3	3	16	3	
	3	10	3	3	15	3	
	4	11	3	3	13	3	
	5	16	3	3	13	2	
	6	17	3	3	11	3	
15	1	3	5	4	20	14	
	2	13	4	4	17	12	
	3	14	4	4	15	12	
	4	16	4	4	12	11	
	5	19	3	3	10	9	
	6	20	3	3	8	8	
16	1	3	4	4	12	17	
	2	7	3	4	11	14	
	3	12	3	4	9	13	
	4	14	2	4	7	10	
	5	15	2	4	7	5	
	6	20	1	4	5	3	
17	1	2	3	5	13	12	
	2	3	3	4	12	12	
	3	4	3	4	9	12	
	4	10	3	4	7	12	
	5	17	3	4	6	12	
	6	19	3	4	4	12	
18	1	1	1	3	4	16	
	2	12	1	3	4	15	
	3	13	1	3	4	14	
	4	17	1	2	4	13	
	5	18	1	1	4	12	
	6	19	1	1	4	11	
19	1	6	4	3	19	15	
	2	8	4	3	14	14	
	3	14	4	3	14	11	
	4	17	4	3	10	9	
	5	18	4	3	8	6	
	6	20	4	3	5	5	
20	1	4	5	3	18	11	
	2	13	4	3	15	11	
	3	14	3	3	13	9	
	4	16	3	3	11	9	
	5	17	1	3	7	8	
	6	20	1	3	4	7	
21	1	6	5	4	3	12	
	2	7	5	3	3	10	
	3	10	5	3	3	9	
	4	14	5	3	3	5	
	5	16	5	3	3	4	
	6	18	5	3	3	2	
22	1	3	4	5	10	3	
	2	5	4	4	9	3	
	3	11	3	3	9	3	
	4	16	3	2	7	3	
	5	18	2	2	6	3	
	6	19	2	1	5	3	
23	1	6	4	1	17	18	
	2	7	4	1	15	16	
	3	12	4	1	13	15	
	4	14	3	1	13	14	
	5	16	3	1	10	14	
	6	17	3	1	9	13	
24	1	2	5	2	3	7	
	2	7	4	1	3	6	
	3	12	4	1	3	5	
	4	14	3	1	3	5	
	5	16	3	1	3	2	
	6	20	3	1	3	1	
25	1	4	3	4	19	17	
	2	8	3	4	15	17	
	3	9	3	4	14	17	
	4	10	3	4	12	16	
	5	12	2	3	6	15	
	6	15	2	3	4	15	
26	1	2	5	4	16	12	
	2	3	5	3	15	9	
	3	4	5	3	13	9	
	4	14	5	3	12	7	
	5	17	5	2	10	3	
	6	20	5	2	10	2	
27	1	1	4	3	12	8	
	2	8	3	2	12	7	
	3	13	3	2	10	7	
	4	14	2	2	9	7	
	5	19	2	1	9	7	
	6	20	1	1	8	7	
28	1	4	3	3	17	10	
	2	5	2	2	16	10	
	3	8	2	2	12	10	
	4	11	2	2	11	9	
	5	12	1	2	9	9	
	6	19	1	2	7	9	
29	1	1	3	3	13	19	
	2	4	3	2	12	18	
	3	5	3	2	12	17	
	4	7	3	1	10	15	
	5	12	3	1	9	15	
	6	19	3	1	8	14	
30	1	2	4	4	7	4	
	2	3	4	4	7	3	
	3	5	4	4	5	4	
	4	11	4	4	3	3	
	5	13	4	3	2	2	
	6	17	4	3	2	1	
31	1	1	2	5	4	16	
	2	8	2	4	3	15	
	3	9	2	3	3	15	
	4	10	2	3	2	15	
	5	14	2	3	2	14	
	6	17	2	2	2	13	
32	1	2	5	1	19	2	
	2	3	4	1	18	2	
	3	4	4	1	17	2	
	4	5	3	1	16	2	
	5	15	3	1	15	2	
	6	16	2	1	15	2	
33	1	1	4	4	18	13	
	2	2	3	4	17	11	
	3	5	3	3	15	9	
	4	10	2	3	15	9	
	5	11	2	1	13	7	
	6	15	2	1	12	6	
34	1	1	4	2	8	9	
	2	9	4	2	6	8	
	3	10	4	2	5	6	
	4	14	3	1	3	6	
	5	17	3	1	2	5	
	6	20	3	1	2	4	
35	1	3	4	3	17	13	
	2	6	4	3	16	12	
	3	13	4	3	16	10	
	4	14	4	3	14	9	
	5	18	4	3	13	8	
	6	20	4	3	10	8	
36	1	2	4	2	9	18	
	2	6	3	2	8	17	
	3	7	3	2	8	15	
	4	12	3	2	8	14	
	5	17	3	2	7	13	
	6	18	3	2	7	12	
37	1	2	4	5	17	13	
	2	5	4	5	13	12	
	3	11	4	5	9	12	
	4	12	4	5	7	11	
	5	13	4	5	5	11	
	6	16	4	5	4	11	
38	1	1	1	3	15	16	
	2	5	1	3	13	15	
	3	8	1	3	10	15	
	4	9	1	2	7	15	
	5	16	1	2	6	15	
	6	20	1	2	1	15	
39	1	1	5	5	19	6	
	2	2	5	4	16	6	
	3	3	5	4	13	6	
	4	4	5	3	12	6	
	5	11	5	3	10	6	
	6	15	5	3	8	6	
40	1	1	5	3	16	12	
	2	6	4	3	13	12	
	3	7	3	3	11	11	
	4	12	3	3	10	11	
	5	13	3	3	8	11	
	6	16	2	3	7	10	
41	1	1	4	4	11	13	
	2	6	4	4	10	12	
	3	10	4	4	10	10	
	4	11	3	3	10	9	
	5	15	3	3	10	8	
	6	19	2	2	10	8	
42	1	3	1	3	14	6	
	2	5	1	2	13	6	
	3	17	1	2	12	6	
	4	18	1	2	11	6	
	5	19	1	2	10	6	
	6	20	1	2	9	6	
43	1	4	4	5	13	10	
	2	5	3	4	12	9	
	3	6	2	3	12	9	
	4	11	2	3	11	9	
	5	14	2	1	11	8	
	6	20	1	1	10	8	
44	1	3	2	5	17	17	
	2	4	2	4	15	15	
	3	8	2	3	12	13	
	4	9	2	3	11	11	
	5	15	2	2	10	9	
	6	16	2	2	8	6	
45	1	3	5	1	20	14	
	2	4	4	1	18	12	
	3	4	3	1	18	13	
	4	5	3	1	18	12	
	5	7	2	1	17	10	
	6	13	2	1	16	10	
46	1	1	1	5	11	5	
	2	13	1	4	10	3	
	3	14	1	3	8	3	
	4	15	1	3	7	2	
	5	17	1	2	4	2	
	6	20	1	1	3	1	
47	1	3	2	2	12	15	
	2	4	2	2	10	14	
	3	5	2	2	10	13	
	4	8	2	2	7	13	
	5	14	1	2	5	12	
	6	19	1	2	4	11	
48	1	2	2	5	18	12	
	2	7	2	4	18	10	
	3	11	2	4	16	9	
	4	18	1	4	15	8	
	5	19	1	4	13	8	
	6	20	1	4	13	7	
49	1	1	2	4	11	15	
	2	5	1	4	10	10	
	3	6	1	4	10	8	
	4	8	1	4	10	6	
	5	13	1	4	8	4	
	6	14	1	4	8	2	
50	1	1	5	5	10	11	
	2	2	4	4	10	11	
	3	3	4	4	10	10	
	4	11	4	3	10	11	
	5	17	4	3	10	10	
	6	20	4	2	10	10	
51	1	1	3	1	18	14	
	2	3	3	1	17	14	
	3	4	3	1	16	14	
	4	5	3	1	15	14	
	5	15	3	1	14	14	
	6	20	3	1	14	13	
52	1	1	4	4	8	15	
	2	7	4	4	6	13	
	3	8	4	4	5	10	
	4	10	4	4	5	7	
	5	16	4	4	3	6	
	6	20	4	4	3	5	
53	1	1	5	5	10	6	
	2	2	5	4	10	5	
	3	3	5	3	10	5	
	4	10	5	3	10	4	
	5	14	5	2	10	5	
	6	17	5	2	10	4	
54	1	1	3	3	20	17	
	2	3	2	3	15	16	
	3	5	2	3	13	16	
	4	6	2	3	7	15	
	5	9	1	3	6	15	
	6	17	1	3	2	14	
55	1	2	4	5	11	10	
	2	3	3	5	11	10	
	3	10	3	5	11	9	
	4	11	3	5	11	8	
	5	12	3	5	11	7	
	6	20	3	5	11	6	
56	1	3	5	4	16	13	
	2	8	4	3	15	11	
	3	11	4	3	15	10	
	4	13	4	3	15	9	
	5	14	4	3	15	8	
	6	20	4	3	15	7	
57	1	1	4	2	3	12	
	2	2	3	2	2	11	
	3	4	3	2	2	10	
	4	8	3	2	2	9	
	5	12	1	2	2	8	
	6	14	1	2	2	7	
58	1	1	3	5	19	12	
	2	2	3	4	19	10	
	3	5	3	4	18	10	
	4	10	2	3	18	10	
	5	15	2	3	16	9	
	6	16	2	3	16	8	
59	1	1	3	1	12	16	
	2	6	3	1	11	14	
	3	7	3	1	11	11	
	4	8	2	1	8	8	
	5	14	2	1	7	6	
	6	18	2	1	6	1	
60	1	2	1	5	14	11	
	2	4	1	5	13	10	
	3	6	1	5	12	7	
	4	8	1	5	8	7	
	5	13	1	5	6	4	
	6	15	1	5	4	3	
61	1	2	4	3	17	7	
	2	3	3	2	16	6	
	3	7	3	2	12	5	
	4	9	2	2	10	4	
	5	12	2	2	7	4	
	6	18	1	2	4	3	
62	1	3	4	3	15	6	
	2	5	4	2	13	6	
	3	9	4	2	13	5	
	4	15	4	1	12	6	
	5	19	4	1	12	5	
	6	20	4	1	11	6	
63	1	1	5	4	12	17	
	2	6	5	4	10	15	
	3	7	5	4	10	14	
	4	15	5	3	10	14	
	5	16	5	3	8	12	
	6	18	5	3	8	11	
64	1	10	2	3	15	11	
	2	11	2	2	14	10	
	3	13	2	2	11	10	
	4	14	2	1	10	9	
	5	15	2	1	6	9	
	6	19	2	1	3	9	
65	1	4	5	4	17	19	
	2	6	4	3	13	15	
	3	7	4	3	12	12	
	4	8	4	3	11	10	
	5	11	3	3	9	4	
	6	18	3	3	5	2	
66	1	2	3	4	4	19	
	2	3	2	3	3	18	
	3	4	2	2	2	17	
	4	15	2	2	2	16	
	5	17	1	2	1	17	
	6	20	1	1	1	16	
67	1	3	5	4	19	5	
	2	10	5	3	19	4	
	3	11	5	3	18	4	
	4	13	5	2	18	4	
	5	18	5	2	17	5	
	6	19	5	2	17	4	
68	1	7	3	4	19	15	
	2	13	3	3	15	12	
	3	15	2	2	15	9	
	4	18	2	2	11	9	
	5	19	1	2	10	7	
	6	20	1	1	9	3	
69	1	1	4	2	9	4	
	2	2	3	2	8	4	
	3	3	3	2	8	3	
	4	7	2	2	8	2	
	5	10	2	2	7	2	
	6	18	2	2	7	1	
70	1	4	4	4	12	6	
	2	11	3	4	11	6	
	3	12	3	4	8	4	
	4	13	3	4	5	4	
	5	16	3	4	4	3	
	6	19	3	4	3	1	
71	1	6	1	4	19	15	
	2	10	1	3	18	14	
	3	11	1	3	18	13	
	4	15	1	3	16	13	
	5	17	1	3	15	12	
	6	20	1	3	15	10	
72	1	1	4	4	4	10	
	2	2	3	4	4	9	
	3	3	2	4	3	8	
	4	4	2	3	3	8	
	5	5	1	2	2	7	
	6	19	1	2	2	6	
73	1	3	4	2	11	18	
	2	9	3	2	9	18	
	3	13	3	2	8	16	
	4	14	3	2	7	15	
	5	15	3	1	4	14	
	6	20	3	1	2	13	
74	1	6	4	4	17	19	
	2	12	4	4	16	15	
	3	15	4	3	15	14	
	4	16	4	3	14	11	
	5	17	4	2	13	8	
	6	19	4	2	13	6	
75	1	3	2	1	12	15	
	2	9	1	1	12	12	
	3	12	1	1	12	10	
	4	13	1	1	12	8	
	5	19	1	1	12	6	
	6	20	1	1	12	5	
76	1	11	3	1	13	7	
	2	13	3	1	11	7	
	3	15	3	1	11	6	
	4	16	3	1	7	6	
	5	17	3	1	5	5	
	6	20	3	1	3	4	
77	1	2	3	3	6	12	
	2	3	2	2	6	12	
	3	4	2	2	6	11	
	4	15	2	2	6	10	
	5	18	1	1	6	11	
	6	20	1	1	6	10	
78	1	2	3	3	19	19	
	2	6	2	3	19	18	
	3	11	2	3	19	17	
	4	13	2	3	19	16	
	5	19	1	3	19	15	
	6	20	1	3	19	14	
79	1	7	1	3	7	18	
	2	8	1	3	6	18	
	3	11	1	3	5	17	
	4	13	1	2	5	17	
	5	15	1	2	3	16	
	6	20	1	2	3	15	
80	1	6	5	4	7	12	
	2	8	5	4	7	11	
	3	16	5	3	7	7	
	4	18	5	3	7	6	
	5	19	5	3	7	3	
	6	20	5	2	7	3	
81	1	2	5	1	18	15	
	2	3	3	1	17	13	
	3	4	3	1	15	12	
	4	11	3	1	15	10	
	5	13	1	1	14	9	
	6	19	1	1	13	7	
82	1	1	2	4	13	17	
	2	2	2	4	12	17	
	3	10	2	3	12	13	
	4	13	2	3	11	13	
	5	17	1	1	11	11	
	6	20	1	1	11	9	
83	1	3	3	2	18	14	
	2	4	3	2	13	13	
	3	5	3	2	13	12	
	4	9	3	2	9	13	
	5	11	3	2	7	13	
	6	16	3	2	4	13	
84	1	3	3	3	11	15	
	2	9	2	2	9	14	
	3	12	2	2	6	13	
	4	13	2	2	5	13	
	5	16	2	2	4	13	
	6	17	2	2	2	12	
85	1	3	3	4	17	20	
	2	6	2	3	17	18	
	3	7	2	3	17	16	
	4	8	2	2	17	12	
	5	11	2	2	17	10	
	6	15	2	2	17	9	
86	1	2	2	5	17	16	
	2	5	2	4	15	14	
	3	7	2	3	13	13	
	4	8	2	3	10	10	
	5	9	2	3	10	7	
	6	16	2	2	7	7	
87	1	2	4	4	19	19	
	2	3	4	3	14	17	
	3	5	4	3	13	15	
	4	16	4	2	8	12	
	5	17	4	2	7	11	
	6	19	4	2	4	8	
88	1	2	1	5	14	16	
	2	5	1	4	13	15	
	3	10	1	4	12	15	
	4	14	1	4	10	12	
	5	15	1	4	9	12	
	6	16	1	4	7	10	
89	1	6	1	3	18	18	
	2	8	1	3	16	13	
	3	15	1	3	13	10	
	4	16	1	3	12	9	
	5	17	1	2	10	5	
	6	20	1	2	7	2	
90	1	1	5	2	6	6	
	2	3	4	1	5	6	
	3	4	4	1	4	6	
	4	13	4	1	4	5	
	5	14	4	1	3	6	
	6	19	4	1	3	5	
91	1	10	4	4	16	6	
	2	13	4	4	16	5	
	3	14	4	3	14	5	
	4	15	4	3	14	4	
	5	16	4	1	12	2	
	6	20	4	1	12	1	
92	1	1	2	3	14	11	
	2	9	1	3	11	10	
	3	11	1	3	10	10	
	4	13	1	3	9	9	
	5	16	1	3	6	9	
	6	20	1	3	5	9	
93	1	1	4	4	10	17	
	2	2	4	4	10	16	
	3	4	3	3	10	15	
	4	7	3	3	10	14	
	5	10	2	2	10	13	
	6	14	1	2	10	13	
94	1	2	4	2	10	17	
	2	4	4	2	9	15	
	3	5	4	2	8	14	
	4	6	4	2	6	12	
	5	11	3	2	5	12	
	6	16	3	2	4	10	
95	1	2	4	2	13	17	
	2	4	3	1	13	16	
	3	7	2	1	12	16	
	4	9	2	1	9	14	
	5	16	1	1	7	13	
	6	17	1	1	6	12	
96	1	2	4	1	14	13	
	2	3	4	1	12	11	
	3	6	4	1	11	7	
	4	7	4	1	10	7	
	5	8	4	1	9	4	
	6	16	4	1	9	2	
97	1	1	2	4	13	8	
	2	2	2	4	10	8	
	3	8	2	4	9	8	
	4	9	2	4	8	8	
	5	16	2	4	6	8	
	6	19	2	4	5	8	
98	1	5	5	5	5	16	
	2	6	4	5	4	15	
	3	15	4	5	4	13	
	4	18	3	5	4	10	
	5	19	3	5	3	7	
	6	20	3	5	3	4	
99	1	4	3	1	13	13	
	2	8	3	1	12	12	
	3	9	3	1	12	11	
	4	12	3	1	9	11	
	5	13	3	1	8	9	
	6	15	3	1	7	9	
100	1	8	5	4	10	15	
	2	9	4	3	8	13	
	3	10	4	2	8	9	
	4	11	3	2	6	8	
	5	16	3	1	6	7	
	6	17	2	1	4	2	
101	1	5	3	2	18	6	
	2	7	2	2	17	6	
	3	8	2	2	17	5	
	4	13	2	2	16	4	
	5	15	2	2	16	3	
	6	16	2	2	16	1	
102	1	0	0	0	0	0	
************************************************************************

 RESOURCE AVAILABILITIES 
	R 1	R 2	N 1	N 2
	31	32	1181	1151

************************************************************************
